c FILE /home/rafael/Documents/HappySet/MIHS/inputs/happygen/output/graph_d_regular_k10_p0.2_v50_20241127_082659.txt
c SOURCE This is a d-regular graph formed for the happy graph colouring problem.
c DESCRIPTION It was generated using the problem generator of Rhyd Lewis
c
c GRAPH STATS
c Seed                             = 338894067
c Number of Nodes                  = 50
c Number of colours k              = 10
c Number of pre-assignments        = 10
c Degree of all vertices           = 6
c Density                          = 0.122449
c 
c The degrees of nodes 1 to 50, respectively, are as follows 
c [6, 6, 6, 6, 6, 6, 6, 6, 6, 6, 6, 6, 6, 6, 6, 6, 6, 6, 6, 6, 6, 6, 6, 6, 6, 6, 
c  6, 6, 6, 6, 6, 6, 6, 6, 6, 6, 6, 6, 6, 6, 6, 6, 6, 6, 6, 6, 6, 6, 6, 6] 
c  
p edge 50 150 10
e 1 18
e 1 36
e 1 37
e 1 38
e 1 40
e 1 47
e 2 12
e 2 13
e 2 27
e 2 28
e 2 34
e 2 43
e 3 18
e 3 23
e 3 26
e 3 28
e 3 30
e 3 41
e 4 6
e 4 19
e 4 21
e 4 30
e 4 35
e 4 45
e 5 8
e 5 11
e 5 18
e 5 26
e 5 29
e 5 33
e 6 10
e 6 11
e 6 25
e 6 29
e 6 33
e 7 12
e 7 16
e 7 22
e 7 36
e 7 38
e 7 47
e 8 14
e 8 24
e 8 40
e 8 47
e 8 49
e 9 14
e 9 32
e 9 33
e 9 35
e 9 43
e 9 45
e 10 25
e 10 26
e 10 39
e 10 44
e 10 50
e 11 24
e 11 28
e 11 48
e 11 50
e 12 17
e 12 19
e 12 20
e 12 50
e 13 20
e 13 30
e 13 38
e 13 40
e 13 46
e 14 17
e 14 24
e 14 34
e 14 35
e 15 21
e 15 33
e 15 36
e 15 38
e 15 48
e 15 49
e 16 26
e 16 29
e 16 30
e 16 37
e 16 42
e 17 18
e 17 22
e 17 41
e 17 42
e 18 35
e 18 44
e 19 24
e 19 30
e 19 34
e 19 43
e 20 26
e 20 34
e 20 36
e 20 38
e 21 29
e 21 45
e 21 48
e 21 49
e 22 25
e 22 28
e 22 37
e 22 48
e 23 29
e 23 32
e 23 40
e 23 43
e 23 46
e 24 25
e 24 27
e 25 27
e 25 46
e 26 39
e 27 41
e 27 42
e 27 50
e 28 37
e 28 47
e 29 46
e 30 40
e 31 32
e 31 37
e 31 40
e 31 44
e 31 47
e 31 50
e 32 33
e 32 34
e 32 41
e 33 43
e 34 48
e 35 46
e 35 48
e 36 42
e 36 49
e 37 38
e 39 42
e 39 44
e 39 45
e 39 49
e 41 47
e 41 50
e 42 43
e 44 45
e 44 49
e 45 46
n 1 8
n 3 5
n 8 6
n 16 1
n 25 7
n 32 9
n 43 10
n 44 2
n 48 3
n 50 4
